
Gurobi 10.0.1 (linux64) logging started Sun Nov 26 15:37:33 2023

Set parameter LogFile to value "ArtificialInstance/ExperimentV2/S2T5K2/AdRo/gurobi1.txt"
Gurobi Optimizer version 10.0.1 build v10.0.1rc0 (linux64)

CPU model: AMD EPYC 7H12 64-Core Processor, instruction set [SSE2|AVX|AVX2]
Thread count: 128 physical cores, 128 logical processors, using up to 32 threads

Academic license 656792 - for non-commercial use only - registered to b.___@student.vu.nl
Optimize a model with 8394 rows, 7930 columns and 30737 nonzeros
Model fingerprint: 0xf912a035
Variable types: 1 continuous, 7929 integer (7929 binary)
Coefficient statistics:
  Matrix range     [1e+00, 4e+01]
  Objective range  [1e+00, 2e+01]
  Bounds range     [1e+00, 1e+00]
  RHS range        [1e+00, 1e+00]
Presolve removed 2007 rows and 2069 columns
Presolve time: 0.18s
Presolved: 6387 rows, 5861 columns, 22976 nonzeros
Variable types: 1 continuous, 5860 integer (5860 binary)
Found heuristic solution: objective 304.7118810

Root relaxation: objective 6.325887e+01, 3078 iterations, 0.15 seconds (0.12 work units)

    Nodes    |    Current Node    |     Objective Bounds      |     Work
 Expl Unexpl |  Obj  Depth IntInf | Incumbent    BestBd   Gap | It/Node Time

*    0     0               0      63.2588671   63.25887  0.00%     -    0s

Explored 1 nodes (3078 simplex iterations) in 0.36 seconds (0.28 work units)
Thread count was 32 (of 128 available processors)

Solution count 2: 63.2589 304.712 

Optimal solution found (tolerance 1.00e-04)
Best objective 6.325886713898e+01, best bound 6.325886713898e+01, gap 0.0000%
